145 139 136 
39 121 31 
65 11 68 
84 96 85 
36 60 46 
82 32 142 
145 16 48 
41 54 45 
110 107 49 
36 32 115 
113 14 72 
59 37 71 
106 27 27 
75 46 110 
70 54 133 
127 37 116 
139 93 49 
96 25 137 
108 53 52 
48 36 47 
